p cnf 116 411
3 -1 0
3 2 0
1 -2 -3 0
4 -5 -6 0
-4 5 -6 0
4 5 6 0
-4 -5 6 0
-7 6 0
-7 -4 0
-6 4 7 0
9 -7 0
9 8 0
7 -8 -9 0
10 3 0
10 -9 0
-3 9 -10 0
12 6 0
12 4 0
-6 -4 -12 0
13 11 0
13 -12 0
-11 12 -13 0
-14 -8 0
-14 -13 0
8 13 14 0
15 10 0
15 -14 0
-10 14 -15 0
-17 -5 0
-17 16 0
5 -16 17 0
18 17 0
18 -6 0
-17 6 -18 0
-6 18 -19 0
6 -18 -19 0
-6 -18 19 0
6 18 19 0
20 -2 0
20 16 0
2 -16 -20 0
11 -12 -21 0
-11 12 -21 0
11 12 21 0
-11 -12 21 0
-22 -21 0
-22 -6 0
21 6 22 0
-23 2 0
-23 -22 0
-2 22 23 0
-24 23 0
-24 18 0
-23 -18 24 0
-25 20 0
-25 -24 0
-20 24 25 0
-19 -25 -26 0
19 25 -26 0
-19 25 26 0
19 -25 26 0
-29 -27 0
-29 -28 0
27 28 29 0
30 -29 0
30 -6 0
29 6 -30 0
32 -31 0
32 -5 0
31 5 -32 0
-5 -33 -34 0
5 33 -34 0
-5 33 34 0
5 -33 34 0
36 16 0
36 35 0
-16 -35 -36 0
38 -36 0
38 -37 0
36 37 -38 0
-39 -38 0
-39 36 0
38 -36 39 0
-40 34 0
-40 -39 0
-34 39 40 0
41 24 0
41 -40 0
-24 40 -41 0
-42 32 0
-42 -41 0
-32 41 42 0
-30 42 -43 0
30 -42 -43 0
-30 -42 43 0
30 42 43 0
26 43 -44 0
-26 -43 -44 0
26 -43 44 0
-26 43 44 0
-45 27 0
-45 -1 0
-27 1 45 0
-45 8 -46 0
45 -8 -46 0
-45 -8 46 0
45 8 46 0
27 -46 -47 0
-27 46 -47 0
27 46 47 0
-27 -46 47 0
-48 47 0
-48 -32 0
-47 32 48 0
49 2 0
49 -37 0
-2 37 -49 0
50 -33 0
50 -49 0
33 49 -50 0
29 28 -51 0
-29 -28 -51 0
29 -28 51 0
-29 28 51 0
-52 51 0
-52 4 0
-51 -4 52 0
-50 -52 -53 0
50 52 -53 0
-50 52 53 0
50 -52 53 0
-54 48 0
-54 53 0
-48 -53 54 0
-55 44 0
-55 -54 0
-44 54 55 0
4 -19 -56 0
-4 19 -56 0
4 19 56 0
-4 -19 56 0
-57 -55 0
-57 -56 0
55 56 57 0
-5 -45 -58 0
5 45 -58 0
-5 45 58 0
5 -45 58 0
-59 -35 0
-59 -58 0
35 58 59 0
-60 39 0
-60 -8 0
-39 8 60 0
-61 -17 0
-61 8 0
17 -8 61 0
-62 -60 0
-62 61 0
60 -61 62 0
63 -8 0
63 62 0
8 -62 -63 0
-11 -63 -64 0
11 63 -64 0
-11 63 64 0
11 -63 64 0
-65 -59 0
-65 64 0
59 -64 65 0
57 -65 -66 0
-57 65 -66 0
57 65 66 0
-57 -65 66 0
18 32 -67 0
-18 -32 -67 0
18 -32 67 0
-18 32 67 0
-68 67 0
-68 -6 0
-67 6 68 0
-69 36 0
-69 33 0
-36 -33 69 0
70 -18 0
70 -69 0
18 69 -70 0
-71 36 0
-71 -7 0
-36 7 71 0
-72 70 0
-72 -71 0
-70 71 72 0
68 72 -73 0
-68 -72 -73 0
68 -72 73 0
-68 72 73 0
-74 -11 0
-74 34 0
11 -34 74 0
2 -74 -75 0
-2 74 -75 0
2 74 75 0
-2 -74 75 0
76 2 0
76 -6 0
-2 6 -76 0
-77 -75 0
-77 76 0
75 -76 77 0
78 73 0
78 -77 0
-73 77 -78 0
66 -78 -79 0
-66 78 -79 0
66 78 79 0
-66 -78 79 0
-80 -51 0
-80 -5 0
51 5 80 0
-81 46 0
-81 16 0
-46 -16 81 0
-82 16 0
-82 -58 0
-16 58 82 0
83 -81 0
83 82 0
81 -82 -83 0
-35 -5 -84 0
35 5 -84 0
-35 5 84 0
35 -5 84 0
85 2 0
85 -84 0
-2 84 -85 0
-86 85 0
-86 -37 0
-85 37 86 0
83 -86 -87 0
-83 86 -87 0
83 86 87 0
-83 -86 87 0
-80 -87 -88 0
80 87 -88 0
-80 87 88 0
80 -87 88 0
-89 4 0
-89 -16 0
-4 16 89 0
90 88 0
90 89 0
-88 -89 -90 0
91 -41 0
91 -23 0
41 23 -91 0
90 -91 -92 0
-90 91 -92 0
90 91 92 0
-90 -91 92 0
93 -79 0
93 -92 0
79 92 -93 0
94 -15 0
94 93 0
15 -93 -94 0
24 -45 -95 0
-24 45 -95 0
24 45 95 0
-24 -45 95 0
-96 94 0
-96 95 0
-94 -95 96 0
-17 69 -97 0
17 -69 -97 0
-17 -69 97 0
17 69 97 0
-67 -4 -98 0
67 4 -98 0
-67 4 98 0
67 -4 98 0
-23 98 -99 0
23 -98 -99 0
-23 -98 99 0
23 98 99 0
100 -29 0
100 -39 0
29 39 -100 0
101 38 0
101 -100 0
-38 100 -101 0
-69 101 -102 0
69 -101 -102 0
-69 -101 102 0
69 101 102 0
-99 -102 -103 0
99 102 -103 0
-99 102 103 0
99 -102 103 0
-18 100 -104 0
18 -100 -104 0
-18 -100 104 0
18 100 104 0
-105 11 0
-105 -33 0
-11 33 105 0
104 -105 -106 0
-104 105 -106 0
104 105 106 0
-104 -105 106 0
107 -103 0
107 106 0
103 -106 -107 0
1 -85 -108 0
-1 85 -108 0
1 85 108 0
-1 -85 108 0
-108 109 -110 0
108 -109 -110 0
-108 -109 110 0
108 109 110 0
107 110 -111 0
-107 -110 -111 0
107 -110 111 0
-107 110 111 0
-58 -29 -112 0
58 29 -112 0
-58 29 112 0
58 -29 112 0
113 69 0
113 112 0
-69 -112 -113 0
114 -111 0
114 113 0
111 -113 -114 0
-97 -114 -115 0
97 114 -115 0
-97 114 115 0
97 -114 115 0
-116 -96 0
-116 -115 0
96 115 116 0
17 -16 56 77 48 0
80 58 0
-80 51 101 -71 84 0
42 23 0
10 -89 35 97 116 0
24 -11 28 113 69 -75 0
-80 75 -27 74 111 0
-43 100 -58 97 84 83 0
-95 -109 59 0
-65 60 -30 69 0
-74 -51 0
-83 -112 -70 43 0
103 100 -90 32 -57 -99 0
-90 62 0
-101 -10 0
7 -79 15 0
43 -42 0
24 -73 -99 -87 -46 76 0
-48 -16 -92 -14 0
-108 60 15 48 111 0
-33 -82 38 0
-94 80 -11 0
105 38 -40 -44 -19 83 0
-62 25 -58 0
-37 86 -95 0
-105 -44 23 66 0
-92 -116 -59 89 68 110 0
19 47 -78 67 0
33 35 -45 114 81 0
60 46 -42 6 0
-107 21 90 14 -77 -84 0
103 27 0
-72 38 0
-73 -23 20 109 46 12 0
-13 -56 102 0
37 -80 9 0
110 -27 100 0
58 10 52 0
-74 64 -49 -108 0
-7 -94 -5 0
11 -44 -22 104 47 -21 0
88 -100 0
-91 -21 112 73 -10 0
-66 -36 -45 -75 -106 98 0
12 -97 43 -50 90 -13 0
-13 46 11 -67 0
42 7 -33 -34 55 0
93 -34 -16 -76 57 81 0
46 -61 79 42 -71 114 0
17 -35 37 -69 -85 -55 0
73 96 79 -9 0
66 100 -56 0
45 -101 36 -98 0
-69 75 76 0
-3 23 62 0
-66 -68 -97 -111 58 53 0
37 111 85 -68 0
46 64 94 -101 0
-102 -9 42 -49 -25 0
30 -52 0
27 -54 -21 88 6 0
-10 -77 -31 108 -20 0
-15 9 0
-64 -31 -51 12 75 57 0
18 -56 67 0
33 -65 83 70 -106 107 0
84 109 -90 0
52 -113 -60 -17 71 55 0
116 0
